NAME : X-n298-k31
COMMENT : "Generated by Uchoa, Pecin, Pessoa, Poggi, Subramanian, and Vidal (2013)"
TYPE : CVRP
DIMENSION : 298
EDGE_WEIGHT_TYPE : EUC_2D
CAPACITY : 55
NODE_COORD_SECTION
1 440 732
2 221 348
3 117 545
4 493 645
5 135 12
6 775 997
7 745 444
8 950 311
9 530 150
10 900 508
11 48 519
12 269 217
13 722 349
14 480 733
15 977 422
16 999 220
17 636 332
18 851 162
19 559 567
20 389 69
21 529 835
22 303 427
23 400 638
24 894 904
25 482 109
26 579 800
27 184 82
28 669 753
29 906 424
30 374 692
31 174 613
32 75 37
33 38 563
34 838 157
35 710 709
36 176 67
37 449 326
38 71 389
39 710 115
40 237 547
41 530 27
42 631 223
43 171 342
44 226 65
45 6 998
46 24 635
47 668 165
48 318 608
49 429 82
50 212 237
51 853 126
52 387 47
53 677 144
54 111 790
55 957 32
56 511 647
57 457 561
58 86 687
59 290 456
60 473 563
61 807 725
62 461 468
63 739 235
64 257 340
65 588 545
66 6 311
67 268 976
68 552 414
69 994 946
70 452 534
71 422 545
72 248 611
73 43 366
74 977 96
75 822 580
76 940 650
77 86 263
78 715 99
79 668 981
80 424 638
81 297 607
82 251 282
83 237 413
84 202 573
85 181 385
86 126 528
87 386 811
88 978 846
89 70 99
90 333 357
91 49 870
92 157 734
93 627 268
94 818 433
95 738 555
96 350 909
97 337 926
98 978 59
99 42 595
100 870 933
101 19 120
102 165 679
103 131 984
104 232 755
105 319 417
106 187 376
107 251 482
108 657 219
109 209 397
110 800 377
111 228 116
112 566 559
113 490 156
114 216 547
115 964 677
116 85 897
117 292 807
118 600 893
119 938 222
120 543 747
121 572 976
122 569 59
123 712 574
124 971 515
125 616 306
126 695 837
127 421 821
128 604 995
129 537 957
130 1000 653
131 282 817
132 380 874
133 778 101
134 462 74
135 87 682
136 441 228
137 608 430
138 511 313
139 710 300
140 630 24
141 626 650
142 531 719
143 598 824
144 995 622
145 258 981
146 358 281
147 279 169
148 286 268
149 259 659
150 782 132
151 862 518
152 457 603
153 210 438
154 44 44
155 527 818
156 164 156
157 23 86
158 342 930
159 39 282
160 269 848
161 436 886
162 323 340
163 237 891
164 333 488
165 517 137
166 591 972
167 541 888
168 122 280
169 159 655
170 200 158
171 446 283
172 107 315
173 588 270
174 158 374
175 26 353
176 959 76
177 852 328
178 927 736
179 437 138
180 53 938
181 333 192
182 922 499
183 407 948
184 970 664
185 237 738
186 8 561
187 747 852
188 989 908
189 100 860
190 10 960
191 842 190
192 595 716
193 286 965
194 199 373
195 159 67
196 979 25
197 488 479
198 804 620
199 742 853
200 528 160
201 223 342
202 503 159
203 711 681
204 339 340
205 342 509
206 931 593
207 766 953
208 710 172
209 521 451
210 172 159
211 685 836
212 639 155
213 763 656
214 269 241
215 825 761
216 330 177
217 901 124
218 713 860
219 619 926
220 692 19
221 96 876
222 949 178
223 79 795
224 833 852
225 336 444
226 877 0
227 296 597
228 566 735
229 940 377
230 349 269
231 939 827
232 908 120
233 50 741
234 670 569
235 753 744
236 577 351
237 141 616
238 97 625
239 64 875
240 496 160
241 515 598
242 344 803
243 274 510
244 291 170
245 800 300
246 74 609
247 365 207
248 791 396
249 453 848
250 405 191
251 395 290
252 525 743
253 260 385
254 408 837
255 1 346
256 231 504
257 837 572
258 606 473
259 900 729
260 346 868
261 123 80
262 477 169
263 383 59
264 510 410
265 890 101
266 952 635
267 825 722
268 68 598
269 234 841
270 911 720
271 172 367
272 569 289
273 84 19
274 694 916
275 454 412
276 261 233
277 693 375
278 588 854
279 276 538
280 599 569
281 142 158
282 338 805
283 324 194
284 739 325
285 845 639
286 638 182
287 858 93
288 40 923
289 37 599
290 638 39
291 218 714
292 568 674
293 288 840
294 439 570
295 325 801
296 587 278
297 992 674
298 597 608
PICKUP_AND_DELIVERY_SECTION
1 0 0 1000000000 0 0 0
2 0 0 1000000000 0 0 2
3 0 0 1000000000 0 0 9
4 0 0 1000000000 0 0 1
5 0 0 1000000000 0 4 0
6 0 0 1000000000 0 0 9
7 0 0 1000000000 0 0 5
8 0 0 1000000000 0 0 7
9 0 0 1000000000 0 2 0
10 0 0 1000000000 0 0 4
11 0 0 1000000000 0 0 7
12 0 0 1000000000 0 0 2
13 0 0 1000000000 0 9 0
14 0 0 1000000000 0 0 5
15 0 0 1000000000 0 0 10
16 0 0 1000000000 0 0 5
17 0 0 1000000000 0 8 0
18 0 0 1000000000 0 0 5
19 0 0 1000000000 0 0 8
20 0 0 1000000000 0 0 8
21 0 0 1000000000 0 6 0
22 0 0 1000000000 0 0 7
23 0 0 1000000000 0 0 2
24 0 0 1000000000 0 0 1
25 0 0 1000000000 0 3 0
26 0 0 1000000000 0 0 9
27 0 0 1000000000 0 0 1
28 0 0 1000000000 0 0 1
29 0 0 1000000000 0 10 0
30 0 0 1000000000 0 0 3
31 0 0 1000000000 0 0 4
32 0 0 1000000000 0 0 8
33 0 0 1000000000 0 10 0
34 0 0 1000000000 0 0 7
35 0 0 1000000000 0 0 9
36 0 0 1000000000 0 0 6
37 0 0 1000000000 0 1 0
38 0 0 1000000000 0 0 1
39 0 0 1000000000 0 0 9
40 0 0 1000000000 0 0 9
41 0 0 1000000000 0 5 0
42 0 0 1000000000 0 0 9
43 0 0 1000000000 0 0 3
44 0 0 1000000000 0 0 6
45 0 0 1000000000 0 4 0
46 0 0 1000000000 0 0 2
47 0 0 1000000000 0 0 8
48 0 0 1000000000 0 0 3
49 0 0 1000000000 0 10 0
50 0 0 1000000000 0 0 6
51 0 0 1000000000 0 0 9
52 0 0 1000000000 0 0 5
53 0 0 1000000000 0 5 0
54 0 0 1000000000 0 0 7
55 0 0 1000000000 0 0 10
56 0 0 1000000000 0 0 5
57 0 0 1000000000 0 8 0
58 0 0 1000000000 0 0 1
59 0 0 1000000000 0 0 4
60 0 0 1000000000 0 0 4
61 0 0 1000000000 0 10 0
62 0 0 1000000000 0 0 7
63 0 0 1000000000 0 0 8
64 0 0 1000000000 0 0 9
65 0 0 1000000000 0 8 0
66 0 0 1000000000 0 0 1
67 0 0 1000000000 0 0 5
68 0 0 1000000000 0 0 9
69 0 0 1000000000 0 8 0
70 0 0 1000000000 0 0 4
71 0 0 1000000000 0 0 7
72 0 0 1000000000 0 0 5
73 0 0 1000000000 0 2 0
74 0 0 1000000000 0 0 9
75 0 0 1000000000 0 0 1
76 0 0 1000000000 0 0 6
77 0 0 1000000000 0 10 0
78 0 0 1000000000 0 0 10
79 0 0 1000000000 0 0 7
80 0 0 1000000000 0 0 10
81 0 0 1000000000 0 6 0
82 0 0 1000000000 0 0 6
83 0 0 1000000000 0 0 9
84 0 0 1000000000 0 0 2
85 0 0 1000000000 0 6 0
86 0 0 1000000000 0 0 1
87 0 0 1000000000 0 0 9
88 0 0 1000000000 0 0 8
89 0 0 1000000000 0 10 0
90 0 0 1000000000 0 0 3
91 0 0 1000000000 0 0 9
92 0 0 1000000000 0 0 3
93 0 0 1000000000 0 8 0
94 0 0 1000000000 0 0 10
95 0 0 1000000000 0 0 6
96 0 0 1000000000 0 0 10
97 0 0 1000000000 0 9 0
98 0 0 1000000000 0 0 7
99 0 0 1000000000 0 0 7
100 0 0 1000000000 0 0 4
101 0 0 1000000000 0 1 0
102 0 0 1000000000 0 0 3
103 0 0 1000000000 0 0 4
104 0 0 1000000000 0 0 5
105 0 0 1000000000 0 10 0
106 0 0 1000000000 0 0 4
107 0 0 1000000000 0 0 2
108 0 0 1000000000 0 0 9
109 0 0 1000000000 0 1 0
110 0 0 1000000000 0 0 6
111 0 0 1000000000 0 0 4
112 0 0 1000000000 0 0 7
113 0 0 1000000000 0 5 0
114 0 0 1000000000 0 0 1
115 0 0 1000000000 0 0 3
116 0 0 1000000000 0 0 4
117 0 0 1000000000 0 4 0
118 0 0 1000000000 0 0 6
119 0 0 1000000000 0 0 6
120 0 0 1000000000 0 0 9
121 0 0 1000000000 0 9 0
122 0 0 1000000000 0 0 7
123 0 0 1000000000 0 0 9
124 0 0 1000000000 0 0 2
125 0 0 1000000000 0 8 0
126 0 0 1000000000 0 0 10
127 0 0 1000000000 0 0 5
128 0 0 1000000000 0 0 10
129 0 0 1000000000 0 3 0
130 0 0 1000000000 0 0 8
131 0 0 1000000000 0 0 7
132 0 0 1000000000 0 0 6
133 0 0 1000000000 0 3 0
134 0 0 1000000000 0 0 8
135 0 0 1000000000 0 0 8
136 0 0 1000000000 0 0 8
137 0 0 1000000000 0 9 0
138 0 0 1000000000 0 0 9
139 0 0 1000000000 0 0 8
140 0 0 1000000000 0 0 1
141 0 0 1000000000 0 1 0
142 0 0 1000000000 0 0 8
143 0 0 1000000000 0 0 5
144 0 0 1000000000 0 0 4
145 0 0 1000000000 0 6 0
146 0 0 1000000000 0 0 1
147 0 0 1000000000 0 0 10
148 0 0 1000000000 0 0 6
149 0 0 1000000000 0 3 0
150 0 0 1000000000 0 0 1
151 0 0 1000000000 0 0 7
152 0 0 1000000000 0 0 9
153 0 0 1000000000 0 4 0
154 0 0 1000000000 0 0 8
155 0 0 1000000000 0 0 4
156 0 0 1000000000 0 0 7
157 0 0 1000000000 0 4 0
158 0 0 1000000000 0 0 6
159 0 0 1000000000 0 0 2
160 0 0 1000000000 0 0 1
161 0 0 1000000000 0 9 0
162 0 0 1000000000 0 0 6
163 0 0 1000000000 0 0 7
164 0 0 1000000000 0 0 2
165 0 0 1000000000 0 8 0
166 0 0 1000000000 0 0 7
167 0 0 1000000000 0 0 4
168 0 0 1000000000 0 0 5
169 0 0 1000000000 0 9 0
170 0 0 1000000000 0 0 6
171 0 0 1000000000 0 0 1
172 0 0 1000000000 0 0 5
173 0 0 1000000000 0 3 0
174 0 0 1000000000 0 0 4
175 0 0 1000000000 0 0 6
176 0 0 1000000000 0 0 1
177 0 0 1000000000 0 9 0
178 0 0 1000000000 0 0 10
179 0 0 1000000000 0 0 3
180 0 0 1000000000 0 0 4
181 0 0 1000000000 0 7 0
182 0 0 1000000000 0 0 2
183 0 0 1000000000 0 0 10
184 0 0 1000000000 0 0 9
185 0 0 1000000000 0 3 0
186 0 0 1000000000 0 0 7
187 0 0 1000000000 0 0 6
188 0 0 1000000000 0 0 2
189 0 0 1000000000 0 9 0
190 0 0 1000000000 0 0 4
191 0 0 1000000000 0 0 2
192 0 0 1000000000 0 0 3
193 0 0 1000000000 0 5 0
194 0 0 1000000000 0 0 4
195 0 0 1000000000 0 0 8
196 0 0 1000000000 0 0 6
197 0 0 1000000000 0 10 0
198 0 0 1000000000 0 0 6
199 0 0 1000000000 0 0 10
200 0 0 1000000000 0 0 7
201 0 0 1000000000 0 8 0
202 0 0 1000000000 0 0 7
203 0 0 1000000000 0 0 1
204 0 0 1000000000 0 0 8
205 0 0 1000000000 0 3 0
206 0 0 1000000000 0 0 2
207 0 0 1000000000 0 0 5
208 0 0 1000000000 0 0 9
209 0 0 1000000000 0 1 0
210 0 0 1000000000 0 0 1
211 0 0 1000000000 0 0 3
212 0 0 1000000000 0 0 4
213 0 0 1000000000 0 10 0
214 0 0 1000000000 0 0 9
215 0 0 1000000000 0 0 10
216 0 0 1000000000 0 0 8
217 0 0 1000000000 0 6 0
218 0 0 1000000000 0 0 7
219 0 0 1000000000 0 0 7
220 0 0 1000000000 0 0 4
221 0 0 1000000000 0 8 0
222 0 0 1000000000 0 0 3
223 0 0 1000000000 0 0 3
224 0 0 1000000000 0 0 5
225 0 0 1000000000 0 1 0
226 0 0 1000000000 0 0 6
227 0 0 1000000000 0 0 3
228 0 0 1000000000 0 0 4
229 0 0 1000000000 0 3 0
230 0 0 1000000000 0 0 4
231 0 0 1000000000 0 0 1
232 0 0 1000000000 0 0 3
233 0 0 1000000000 0 5 0
234 0 0 1000000000 0 0 7
235 0 0 1000000000 0 0 1
236 0 0 1000000000 0 0 4
237 0 0 1000000000 0 3 0
238 0 0 1000000000 0 0 9
239 0 0 1000000000 0 0 8
240 0 0 1000000000 0 0 8
241 0 0 1000000000 0 3 0
242 0 0 1000000000 0 0 7
243 0 0 1000000000 0 0 2
244 0 0 1000000000 0 0 9
245 0 0 1000000000 0 7 0
246 0 0 1000000000 0 0 8
247 0 0 1000000000 0 0 5
248 0 0 1000000000 0 0 7
249 0 0 1000000000 0 2 0
250 0 0 1000000000 0 0 1
251 0 0 1000000000 0 0 9
252 0 0 1000000000 0 0 7
253 0 0 1000000000 0 6 0
254 0 0 1000000000 0 0 1
255 0 0 1000000000 0 0 1
256 0 0 1000000000 0 0 9
257 0 0 1000000000 0 6 0
258 0 0 1000000000 0 0 4
259 0 0 1000000000 0 0 1
260 0 0 1000000000 0 0 2
261 0 0 1000000000 0 2 0
262 0 0 1000000000 0 0 9
263 0 0 1000000000 0 0 5
264 0 0 1000000000 0 0 5
265 0 0 1000000000 0 10 0
266 0 0 1000000000 0 0 7
267 0 0 1000000000 0 0 2
268 0 0 1000000000 0 0 10
269 0 0 1000000000 0 9 0
270 0 0 1000000000 0 0 4
271 0 0 1000000000 0 0 10
272 0 0 1000000000 0 0 9
273 0 0 1000000000 0 3 0
274 0 0 1000000000 0 0 10
275 0 0 1000000000 0 0 1
276 0 0 1000000000 0 0 7
277 0 0 1000000000 0 1 0
278 0 0 1000000000 0 0 8
279 0 0 1000000000 0 0 10
280 0 0 1000000000 0 0 6
281 0 0 1000000000 0 10 0
282 0 0 1000000000 0 0 2
283 0 0 1000000000 0 0 2
284 0 0 1000000000 0 0 7
285 0 0 1000000000 0 5 0
286 0 0 1000000000 0 0 5
287 0 0 1000000000 0 0 3
288 0 0 1000000000 0 0 4
289 0 0 1000000000 0 9 0
290 0 0 1000000000 0 0 1
291 0 0 1000000000 0 0 6
292 0 0 1000000000 0 0 3
293 0 0 1000000000 0 9 0
294 0 0 1000000000 0 0 8
295 0 0 1000000000 0 0 9
296 0 0 1000000000 0 0 1
297 0 0 1000000000 0 10 0
298 0 0 1000000000 0 0 10
